1 40 47
19 55 46
7 61 56
4 71 47
15 66 26
12 56 18
16 98 2
25 92 23
5 100 45
2 94 90
24 98 94
20 65 99
17 39 92
18 36 76
13 17 61
14 27 49
3 15 37
11 5 36
21 19 31
9 13 21
23 11 14
8 13 13
22 27 24
6 38 38
10 36 46
1 40 47
